2
57
0 2 3 13 4 5 6 7 8 17 16 15 24 23 25 26 34 35 43 33 42 41 32 31 40 50 52 59 60 61 62 71 70 80 78 87 76 75 74 65 66 58 57 56 48 47 38 37 28 29 20 21 22 14 12 11 1
43
0 10 18 27 36 45 46 54 55 63 64 73 72 81 82 90 91 92 93 83 84 85 94 95 96 86 88 97 98 89 79 77 67 68 69 53 44 51 49 39 30 19 9
